(declare-const p175 Real)
(declare-const income Real)
(declare-const p025 Real)
(declare-const fee_bl Real)
(declare-const p075 Real)
(declare-const p275 Real)
(declare-const p375 Real)
(declare-const p475 Real)
(assert (= p025 (* 0.0025 (ite (> income 2000) 2000 income))))
(assert (= p075 (ite (> income 2000) (* 0.0075 (- (ite (> income 5000) 5000 income) 2000)) 0)))
(assert (= p175 (ite (> income 5000) (* 0.0175 (- (ite (> income 7500) 7500 income) 5000)) 0)))
(assert (= p275 (ite (> income 7500) (* 0.0275 (- (ite (> income 9800) 9800 income) 7500)) 0)))
(assert (= p375 (ite (> income 9800) (* 0.0375 (- (ite (> income 14400) 14400 income) 9800)) 0)))
(assert (= p475 (ite (> income 14400) (* 0.0475 (- income 14400)) 0)))
(assert (= fee_bl (+ (+ (+ (+ (+ p025 p075) p175) p275) p375) p475)))